s td 13 48 60
b 1 1 2 3 4 5 6 8 9 10 11 13 14 15 16 18 19 21 22 23 25 26 27 28 29 30 32 34 35 36 37 39 40 41 42 43 44 45 46 47 48 49 50 52 54 55 56 58 59
b 2 1 3 4 5 6 8 9 10 11 13 14 15 16 18 19 20 21 22 23 25 26 27 28 29 30 32 34 35 36 37 39 41 42 43 44 45 46 47 48 49 50 52 54 55 56 58 59
b 3 1 3 4 5 6 8 9 10 11 13 14 15 16 18 19 20 21 22 23 25 27 28 29 30 31 32 34 35 36 39 41 42 43 44 45 46 47 48 49 50 52 54 55 56 58 59
b 4 1 3 6 8 9 10 11 13 14 15 16 18 19 20 21 22 23 25 27 28 29 30 31 32 33 34 35 36 39 41 42 43 44 45 46 47 48 49 50 52 54 55 58
b 5 1 3 7 8 9 10 14 15 16 19 21 28 29 30 33 34 35 36 39 42 43 45 46 47 49 50 52 54 58
b 6 1 2 3 4 5 8 9 10 11 12 13 15 16 18 19 21 22 23 25 26 28 29 30 32 34 35 36 37 39 40 42 43 44 45 47 48 50 52 54 55 56 58 59
b 7 2 3 4 5 8 9 10 11 12 13 15 16 18 19 23 25 26 28 29 30 32 34 35 36 37 39 40 42 43 44 45 47 48 50 52 55 58 59 60
b 8 2 4 5 9 11 12 13 15 16 18 23 24 25 26 28 29 32 35 36 40 42 43 44 45 47 48 52 55 60
b 9 1 2 3 4 5 6 8 9 10 13 14 15 16 18 19 21 22 23 25 26 27 28 30 32 34 35 36 37 38 39 40 41 42 43 44 45 46 47 48 49 50 52 54 55 56 58 59
b 10 1 2 4 5 6 9 13 14 15 16 18 19 21 22 23 25 26 27 28 30 32 35 36 37 38 39 40 41 42 43 44 45 47 48 49 50 52 54 55 56 57 58 59
b 11 1 2 4 6 9 13 18 19 21 22 25 26 27 28 30 32 35 36 37 38 41 42 43 44 47 48 49 50 51 52 54 55 57 58 59
b 12 1 4 9 17 18 19 21 22 25 27 28 30 32 38 41 42 44 47 48 49 50 51 54 57 59
b 13 1 3 5 8 10 14 18 23 25 28 32 34 35 38 39 40 41 42 43 45 48 53 54 55 56 59
1 2
1 6
1 9
2 3
3 4
4 5
6 7
7 8
9 10
9 13
10 11
11 12
